* LP written by GAMS Convert at 12/20/23 12:38:31
*
* Equation counts
*     Total        E        G        L        N        X        C        B
*        21       10        5        6        0        0        0        0
*
* Variable counts
*                  x        b        i      s1s      s2s       sc       si
*     Total     cont   binary  integer     sos1     sos2    scont     sint
*        64       64        0        0        0        0        0        0
* FX      0
*
* Nonzero counts
*     Total    const       NL
*       215      215        0

NAME          Convert
*
* original model was maximizing
*
ROWS
 N  obj
 E  e1
 E  e2
 G  e3
 G  e4
 G  e5
 G  e6
 G  e7
 E  e8
 E  e9
 L  e10
 L  e11
 L  e12
 L  e13
 L  e14
 L  e15
 E  e16
 E  e17
 E  e18
 E  e19
 E  e20
 E  e21
COLUMNS
    x1        e10                 10
    x1        e20        -389.061369
    x2        e1                -120
    x2        e10                 20
    x2        e20       -1009.124992
    x3        e1              -132.6
    x3        e2               -37.4
    x3        e10                 30
    x3        e20        -2617.41034
    x4        e1                -121
    x4        e2                 -99
    x4        e10                 40
    x4        e20       -6788.888335
    x5        e1                -108
    x5        e2                -162
    x5        e10                 50
    x5        e20       -17608.62793
    x6        e1                -104
    x6        e2                -221
    x6        e10                 60
    x6        e20       -45672.24593
    x7        e1                -105
    x7        e2                -270
    x7        e10                 70
    x7        e20       -118462.0435
    x8        e1                -102
    x8        e2                -323
    x8        e10                 80
    x8        e20       -307260.0322
    x9        e11                 10
    x9        e20        -389.061369
    x10       e1                 -95
    x10       e11                 20
    x10       e20       -1009.124992
    x11       e1              -120.2
    x11       e2               -14.8
    x11       e11                 30
    x11       e20        -2617.41034
    x12       e1              -115.5
    x12       e2               -59.5
    x12       e11                 40
    x12       e20       -6788.888335
    x13       e1                -112
    x13       e2                -108
    x13       e11                 50
    x13       e20       -17608.62793
    x14       e1                -106
    x14       e2                -159
    x14       e11                 60
    x14       e20       -45672.24593
    x15       e1                 -98
    x15       e2                -207
    x15       e11                 70
    x15       e20       -118462.0435
    x16       e1                -105
    x16       e2                -235
    x16       e11                 80
    x16       e20       -307260.0322
    x17       e12                 10
    x17       e20        -389.061369
    x18       e1                 -80
    x18       e12                 20
    x18       e20       -1009.124992
    x19       e1                -115
    x19       e12                 30
    x19       e20        -2617.41034
    x20       e1                -119
    x20       e2                 -21
    x20       e12                 40
    x20       e20       -6788.888335
    x21       e1              -112.2
    x21       e2               -57.8
    x21       e12                 50
    x21       e20       -17608.62793
    x22       e1                -110
    x22       e2                 -90
    x22       e12                 60
    x22       e20       -45672.24593
    x23       e1                 -97
    x23       e2                -128
    x23       e12                 70
    x23       e20       -118462.0435
    x24       e1                 -92
    x24       e2                -163
    x24       e12                 80
    x24       e20       -307260.0322
    x25       e1               -17.5
    x25       e13                 10
    x25       e20        -389.061369
    x26       e1               -66.8
    x26       e13                 20
    x26       e20       -1009.124992
    x27       e1               -91.3
    x27       e2               -25.7
    x27       e13                 30
    x27       e20        -2617.41034
    x28       e1               -91.3
    x28       e2               -74.7
    x28       e13                 40
    x28       e20       -6788.888335
    x29       e1                 -76
    x29       e2                -114
    x29       e13                 50
    x29       e20       -17608.62793
    x30       e1                 -76
    x30       e2                -116
    x30       e13                 60
    x30       e20       -45672.24593
    x31       e1                 -78
    x31       e2                -200
    x31       e13                 70
    x31       e20       -118462.0435
    x32       e1                 -76
    x32       e2                -240
    x32       e13                 80
    x32       e20       -307260.0322
    x33       e14                 10
    x33       e20        -389.061369
    x34       e1               -51.1
    x34       e14                 20
    x34       e20       -1009.124992
    x35       e1               -81.4
    x35       e2                 -10
    x35       e14                 30
    x35       e20        -2617.41034
    x36       e1               -86.5
    x36       e2               -44.5
    x36       e14                 40
    x36       e20       -6788.888335
    x37       e1                 -77
    x37       e2                 -74
    x37       e14                 50
    x37       e20       -17608.62793
    x38       e1                 -76
    x38       e2                -113
    x38       e14                 60
    x38       e20       -45672.24593
    x39       e1                 -72
    x39       e2                -153
    x39       e14                 70
    x39       e20       -118462.0435
    x40       e1                 -80
    x40       e2                -177
    x40       e14                 80
    x40       e20       -307260.0322
    x41       e15                 10
    x41       e20        -389.061369
    x42       e1               -37.8
    x42       e15                 20
    x42       e20       -1009.124992
    x43       e1               -71.3
    x43       e15                 30
    x43       e20        -2617.41034
    x44       e1               -90.1
    x44       e2               -15.9
    x44       e15                 40
    x44       e20       -6788.888335
    x45       e1                 -92
    x45       e2               -47.6
    x45       e15                 50
    x45       e20       -17608.62793
    x46       e1               -95.2
    x46       e2               -77.8
    x46       e15                 60
    x46       e20       -45672.24593
    x47       e1                 -88
    x47       e2                -116
    x47       e15                 70
    x47       e20       -118462.0435
    x48       e1                 -84
    x48       e2                -148
    x48       e15                 80
    x48       e20       -307260.0322
    x49       e1                   1
    x49       e3                   1
    x49       e19                 -7
    x50       e2                   1
    x50       e4                   1
    x50       e19                 -7
    x51       e3                  -1
    x51       e6               0.207
    x51       e8                   1
    x51       e17              -5.96
    x52       e4                  -1
    x52       e6               0.207
    x52       e8                   1
    x52       e17              -5.96
    x53       e5                  -1
    x53       e6               0.207
    x53       e8                   1
    x53       e17              -5.96
    x54       e4                  -1
    x54       e5                 0.4
    x54       e7                 0.6
    x54       e9                   1
    x54       e17                 -6
    x55       e8                  -1
    x55       e16       -4.009795584
    x56       e9                  -1
    x56       e16       -6.523873768
    x57       e6                  -1
    x57       e18               -147
    x58       e7                  -1
    x58       e18                -70
    x59       e16                  1
    x59       e21                  1
    x60       e17                  1
    x60       e21                  1
    x61       e18                  1
    x61       e21                 -1
    x62       e19                  1
    x62       e21                  1
    x63       e20                  1
    x63       e21                  1
    x64       obj                 -1
    x64       e21                  1
RHS
    rhs       e10           35.91975
    rhs       e11            71.8395
    rhs       e12           35.91975
    rhs       e13             56.895
    rhs       e14             113.79
    rhs       e15             56.895
BOUNDS
 FR bnd       x49
 FR bnd       x50
 FR bnd       x55
 FR bnd       x56
 FR bnd       x59
 FR bnd       x60
 FR bnd       x61
 FR bnd       x62
 FR bnd       x63
 FR bnd       x64
ENDATA
